NAME: concorde11(2)
TYPE: TSP
COMMENT: Generated by CCutil_writetsplib
COMMENT: Write called for by Concorde GUI
DIMENSION: 11
EDGE_WEIGHT_TYPE: EUC_2D
NODE_COORD_SECTION
1 5.681818 63.860370 2,3,4
2 11.850649 83.983573 3
3 13.798701 65.092402 4,5
4 16.883117 40.451745 5,6,7
5 23.782468 56.262834 7,8
6 25.000000 31.211499 8
7 29.951299 41.683778 9,10
8 31.331169 25.256674 9,10,11
9 37.175325 37.577002 11
10 39.935065 19.096509 11
11 46.834416 29.979466 1
